VACCINE = Vaccine(1..2);
m = 24;
age = [CHILD, CHILD, ADULT, CHILD, BABY, SENIOR, AGED, ANCIENT, SENIOR, SENIOR, ANCIENT, YOUTH, ANCIENT, AGED, ADULT, YOUTH, SENIOR, BABY, ANCIENT, CHILD, ANCIENT, YOUTH, ANCIENT, CHILD];
gender = [OTHER, OTHER, OTHER, MALE, OTHER, MALE, FEMALE, MALE, MALE, MALE, FEMALE, MALE, OTHER, MALE, MALE, OTHER, MALE, OTHER, OTHER, OTHER, MALE, FEMALE, OTHER, FEMALE];
health = [POOR, GOOD, POOR, COMPROMISED, POOR, COMPROMISED, COMPROMISED, GOOD, COMPROMISED, COMPROMISED, GOOD, GOOD, COMPROMISED, COMPROMISED, POOR, GOOD, COMPROMISED, COMPROMISED, GOOD, GOOD, GOOD, COMPROMISED, POOR, COMPROMISED];
exposure = [HIGH, LOW, EXTREME, AVERAGE, EXTREME, HIGH, LOW, AVERAGE, HIGH, AVERAGE, LOW, AVERAGE, EXTREME, LOW, LOW, EXTREME, EXTREME, EXTREME, EXTREME, LOW, AVERAGE, EXTREME, EXTREME, LOW];
size = [11, 9, 9, 7, 8, 10, 9, 8, 9, 11, 8, 9, 10, 6, 6, 8, 8, 8, 6, 9, 11, 11, 9, 10];
minsize = 6;
age_group_min = [0, 1, 1, 1, 0, 0, 0];
age_group_max = [16, 24, 16, 16, 14, 16, 11];
max_people_diff = 140;
max_share_vaccines = 2;
health_information = {4, 16, 21};
exposure_information = {1, 4, 13, 15};